
Gurobi 9.5.0 (linux64) logging started Fri Dec  8 15:49:40 2023

Set parameter LogFile to value "/lustre1/scratch/348/vsc34888/JointResearch/05.Models/06.Benchmarking/G.Representative_days_based_on_Line_Benefit_NN_OC_fy_2/RTS24_mod1_ByStages_nc10/openStarNet_RTS24_mod1_ByStages_nc10.log"
Set parameter Method to value 2
Set parameter MIPFocus to value 1
Set parameter Presolve to value 2
Set parameter RINS to value 100
Set parameter MIPGap to value 0.01
Set parameter Threads to value 36
Set parameter TimeLimit to value 259200
Set parameter IterationLimit to value 760000000
Gurobi Optimizer version 9.5.0 build v9.5.0rc5 (linux64)
Thread count: 36 physical cores, 36 logical processors, using up to 36 threads
Optimize a model with 3908 rows, 2651 columns and 10626 nonzeros
Model fingerprint: 0x39fbba46
Variable types: 2630 continuous, 21 integer (21 binary)
Coefficient statistics:
  Matrix range     [8e-03, 2e+03]
  Objective range  [1e+00, 1e+00]
  Bounds range     [3e-05, 2e+00]
  RHS range        [3e-05, 2e+00]
Presolve removed 2333 rows and 1343 columns
Presolve time: 0.02s
Presolved: 1575 rows, 1308 columns, 5686 nonzeros
Variable types: 1287 continuous, 21 integer (21 binary)
Found heuristic solution: objective 86.3893514
Root relaxation presolve removed 3 rows and 3 columns
Root relaxation presolved: 1572 rows, 1305 columns, 5680 nonzeros

Root barrier log...

Ordering time: 0.02s

Barrier statistics:
 AA' NZ     : 2.814e+04
 Factor NZ  : 1.420e+05 (roughly 2 MB of memory)
 Factor Ops : 1.944e+07 (less than 1 second per iteration)
 Threads    : 36

                  Objective                Residual
Iter       Primal          Dual         Primal    Dual     Compl     Time
   0   5.92835012e+05 -3.97955633e+07  5.01e+00 9.69e+02  2.98e+04     0s
   1   4.95864848e+04 -9.89931442e+06  4.41e-01 6.13e-11  3.60e+03     0s
   2   2.05088509e+04 -7.47475898e+06  1.66e-01 6.47e-11  2.31e+03     0s
   3   6.56497700e+03 -9.55923118e+05  1.48e-02 3.86e-11  2.68e+02     0s
   4   4.10683362e+03 -3.69797230e+04  1.24e-13 1.31e-11  1.11e+01     0s
   5   7.93656314e+02 -4.78288435e+03  2.52e-13 5.98e-12  1.51e+00     0s
   6   4.14544565e+02 -1.66485731e+03  1.58e-13 7.28e-12  5.63e-01     0s
   7   2.21454372e+02 -7.19492614e+02  1.02e-13 3.64e-12  2.55e-01     0s
   8   1.05583895e+02 -1.41330473e+02  1.13e-13 7.28e-12  6.68e-02     0s
   9   7.73751686e+01 -6.06101115e+00  1.72e-13 3.64e-12  2.26e-02     0s
  10   6.13529488e+01  3.15178558e+01  2.62e-13 3.64e-12  8.08e-03     0s
  11   5.41456272e+01  4.27471128e+01  3.19e-13 3.64e-12  3.09e-03     0s
  12   5.03285862e+01  4.65340940e+01  2.51e-12 3.64e-12  1.03e-03     0s
  13   4.89085327e+01  4.80232024e+01  3.28e-12 1.82e-12  2.40e-04     0s
  14   4.88020782e+01  4.81690624e+01  4.95e-11 2.73e-12  1.71e-04     0s
  15   4.84916690e+01  4.82317052e+01  5.73e-11 3.64e-12  7.04e-05     0s
  16   4.84160198e+01  4.82761059e+01  3.71e-11 7.28e-12  3.79e-05     0s
  17   4.83182132e+01  4.82832027e+01  5.37e-11 3.64e-12  9.48e-06     0s
  18   4.83016260e+01  4.82884169e+01  7.02e-11 3.64e-12  3.58e-06     0s
  19   4.82972319e+01  4.82933148e+01  4.02e-11 3.64e-12  1.06e-06     0s
  20   4.82965103e+01  4.82961111e+01  1.56e-11 3.64e-12  1.08e-07     0s
  21   4.82964257e+01  4.82963739e+01  4.14e-11 1.82e-12  1.40e-08     0s
  22   4.82964128e+01  4.82964127e+01  2.21e-11 3.64e-12  2.34e-11     0s

Barrier solved model in 22 iterations and 0.31 seconds (0.06 work units)
Optimal objective 4.82964128e+01


Root relaxation: objective 4.829641e+01, 198 iterations, 0.26 seconds (0.04 work units)

    Nodes    |    Current Node    |     Objective Bounds      |     Work
 Expl Unexpl |  Obj  Depth IntInf | Incumbent    BestBd   Gap | It/Node Time

     0     0   48.29641    0    9   86.38935   48.29641  44.1%     -    0s
     0     0   49.88059    0    6   86.38935   49.88059  42.3%     -    0s
H    0     0                      83.2404326   49.88059  40.1%     -    0s
H    0     0                      76.3104353   49.88059  34.6%     -    0s
     0     0   50.67511    0    6   76.31044   50.67511  33.6%     -    0s
H    0     0                      69.5953598   50.67511  27.2%     -    0s
     0     0   50.86971    0    8   69.59536   50.86971  26.9%     -    0s
H    0     0                      67.4418751   50.86971  24.6%     -    0s
     0     0   51.27703    0   10   67.44188   51.27703  24.0%     -    0s
     0     0   51.56023    0   11   67.44188   51.56023  23.5%     -    0s
     0     0   52.14136    0   10   67.44188   52.14136  22.7%     -    0s
     0     0   53.28185    0   12   67.44188   53.28185  21.0%     -    0s
H    0     0                      66.3979036   53.45668  19.5%     -    0s
     0     0   53.45668    0   12   66.39790   53.45668  19.5%     -    0s
H    0     0                      62.4543838   53.64175  14.1%     -    0s
     0     0   53.64175    0   12   62.45438   53.64175  14.1%     -    0s
H    0     0                      61.9430768   54.28622  12.4%     -    0s
H    0     0                      61.9341955   54.28622  12.3%     -    0s
     0     0   54.28622    0   12   61.93420   54.28622  12.3%     -    0s
     0     0   54.74614    0   13   61.93420   54.74614  11.6%     -    0s
     0     0   54.88486    0   13   61.93420   54.88486  11.4%     -    0s
     0     0   55.18793    0   13   61.93420   55.18793  10.9%     -    0s
     0     2   55.18793    0   13   61.93420   55.18793  10.9%     -    1s
H  130    54                      61.9153210   55.54636  10.3%  35.1    1s

Cutting planes:
  Gomory: 3
  Implied bound: 11
  MIR: 47
  Relax-and-lift: 10

Explored 579 nodes (16131 simplex iterations) in 2.39 seconds (1.62 work units)
Thread count was 36 (of 36 available processors)

Solution count 10: 61.9153 61.9342 61.9431 ... 86.3894

Optimal solution found (tolerance 1.00e-02)
Best objective 6.191532100163e+01, best bound 6.191532100163e+01, gap 0.0000%

Gurobi 9.5.0 (linux64) logging started Fri Dec  8 15:49:42 2023

Set parameter LogFile to value "/lustre1/scratch/348/vsc34888/JointResearch/05.Models/06.Benchmarking/G.Representative_days_based_on_Line_Benefit_NN_OC_fy_2/RTS24_mod1_ByStages_nc10/openStarNet_RTS24_mod1_ByStages_nc10.log"
Set parameter Method to value 2
Set parameter MIPFocus to value 1
Set parameter Presolve to value 2
Set parameter RINS to value 100
Set parameter MIPGap to value 0.01
Set parameter Threads to value 36
Set parameter TimeLimit to value 259200
Set parameter IterationLimit to value 760000000
No parameters matching 'relax_integrality' found
Gurobi Optimizer version 9.5.0 build v9.5.0rc5 (linux64)
Thread count: 36 physical cores, 36 logical processors, using up to 36 threads
Optimize a model with 3908 rows, 2630 columns and 9681 nonzeros
Model fingerprint: 0x307af14e
Coefficient statistics:
  Matrix range     [8e-03, 2e+03]
  Objective range  [1e+00, 1e+00]
  Bounds range     [3e-05, 2e+00]
  RHS range        [3e-05, 2e+01]
Presolve removed 3272 rows and 1484 columns
Presolve time: 0.01s
Presolved: 636 rows, 1157 columns, 2747 nonzeros

Ordering time: 0.00s

Barrier statistics:
 AA' NZ     : 1.396e+03
 Factor NZ  : 5.533e+03 (roughly 1 MB of memory)
 Factor Ops : 7.554e+04 (less than 1 second per iteration)
 Threads    : 1

                  Objective                Residual
Iter       Primal          Dual         Primal    Dual     Compl     Time
   0   1.38348097e+06 -2.43402301e+07  7.37e+00 4.02e+03  1.06e+05     0s
   1   9.67705425e+04 -1.60263995e+07  4.56e-01 6.55e-11  1.29e+04     0s
   2   4.10960603e+04 -5.09931920e+06  1.27e-01 8.15e-11  3.30e+03     0s
   3   2.00569664e+04 -7.12640469e+05  1.55e-03 8.73e-11  3.80e+02     0s
   4   1.19402135e+04 -6.07658562e+04  1.08e-11 9.28e-11  3.75e+01     0s
   5   2.95465609e+03 -9.18338355e+03  1.05e-11 2.91e-11  6.26e+00     0s
   6   4.45426530e+02 -1.77099722e+03  2.87e-12 1.46e-11  1.14e+00     0s
   7   2.49955981e+02 -4.58278410e+02  1.31e-12 7.28e-12  3.65e-01     0s
   8   1.24743284e+02 -2.30149202e+01  2.99e-13 1.46e-11  7.62e-02     0s
   9   7.65374558e+01  3.78140054e+01  2.13e-13 1.46e-11  2.00e-02     0s
  10   6.45080266e+01  5.67201244e+01  2.54e-13 7.28e-12  4.01e-03     0s
  11   6.25198731e+01  6.09429614e+01  1.94e-13 7.28e-12  8.13e-04     0s
  12   6.19498600e+01  6.17634434e+01  2.12e-13 1.46e-11  9.61e-05     0s
  13   6.19165496e+01  6.19105509e+01  2.81e-13 1.46e-11  3.09e-06     0s
  14   6.19153231e+01  6.19153158e+01  7.68e-14 7.28e-12  3.78e-09     0s
  15   6.19153210e+01  6.19153210e+01  1.80e-13 7.28e-12  3.78e-12     0s
  16   6.19153210e+01  6.19153210e+01  4.52e-13 1.46e-11  8.08e-17     0s

Barrier solved model in 16 iterations and 0.02 seconds (0.01 work units)
Optimal objective 6.19153210e+01

Crossover log...

     145 DPushes remaining with DInf 0.0000000e+00                 0s
       0 DPushes remaining with DInf 0.0000000e+00                 0s

      38 PPushes remaining with PInf 0.0000000e+00                 0s
       0 PPushes remaining with PInf 0.0000000e+00                 0s

  Push phase complete: Pinf 0.0000000e+00, Dinf 4.2630518e-13      0s

Iteration    Objective       Primal Inf.    Dual Inf.      Time
      43    6.1915321e+01   0.000000e+00   0.000000e+00      0s

Use crossover to convert LP symmetric solution to basic solution...
Crossover log...

      30 PPushes remaining with PInf 0.0000000e+00                 0s
       0 PPushes remaining with PInf 0.0000000e+00                 0s

  Push phase complete: Pinf 0.0000000e+00, Dinf 4.6836822e-13      0s

Iteration    Objective       Primal Inf.    Dual Inf.      Time
      76    6.1915321e+01   0.000000e+00   0.000000e+00      0s

Solved in 76 iterations and 0.02 seconds (0.01 work units)
Optimal objective  6.191532100e+01

Gurobi 9.5.0 (linux64) logging started Fri Dec  8 20:31:29 2023

Set parameter LogFile to value "/lustre1/scratch/348/vsc34888/JointResearch/05.Models/06.Benchmarking/G.Representative_days_based_on_Line_Benefit_NN_OC_fy_2/RTS24_mod1_ByStages_nc10/openStarNet_RTS24_mod1_ByStages_nc10.log"
Set parameter Method to value 2
Set parameter MIPFocus to value 1
Set parameter Presolve to value 2
Set parameter RINS to value 100
Set parameter MIPGap to value 0.01
Set parameter Threads to value 36
Set parameter TimeLimit to value 259200
Set parameter IterationLimit to value 760000000
Gurobi Optimizer version 9.5.0 build v9.5.0rc5 (linux64)
Thread count: 36 physical cores, 36 logical processors, using up to 36 threads
Optimize a model with 3908 rows, 2658 columns and 10649 nonzeros
Model fingerprint: 0x6f5f8378
Variable types: 2637 continuous, 21 integer (21 binary)
Coefficient statistics:
  Matrix range     [1e-02, 3e+03]
  Objective range  [1e+00, 1e+00]
  Bounds range     [2e-04, 2e+00]
  RHS range        [2e-04, 2e+00]
Presolve removed 2331 rows and 1345 columns
Presolve time: 0.02s
Presolved: 1577 rows, 1313 columns, 5694 nonzeros
Variable types: 1292 continuous, 21 integer (21 binary)
Found heuristic solution: objective 64.6539820
Root relaxation presolve removed 2 rows and 2 columns
Root relaxation presolved: 1575 rows, 1311 columns, 5690 nonzeros

Root barrier log...

Ordering time: 0.02s

Barrier statistics:
 AA' NZ     : 2.814e+04
 Factor NZ  : 1.477e+05 (roughly 2 MB of memory)
 Factor Ops : 2.060e+07 (less than 1 second per iteration)
 Threads    : 36

                  Objective                Residual
Iter       Primal          Dual         Primal    Dual     Compl     Time
   0   2.62495882e+06 -3.43093058e+07  2.18e+01 1.19e+03  8.09e+04     0s
   1   7.57600727e+05 -1.95096334e+07  6.30e+00 4.61e+01  2.21e+04     0s
   2   3.42756056e+04 -7.79249530e+06  3.37e-01 8.31e-11  2.72e+03     0s
   3   6.81803216e+03 -1.18533540e+06  2.55e-02 5.97e-11  3.39e+02     0s
   4   3.78424429e+03 -3.55581447e+04  2.99e-13 1.10e-11  1.06e+01     0s
   5   1.21762913e+03 -6.36501196e+03  4.54e-13 4.62e-12  2.05e+00     0s
   6   3.56864280e+02 -1.82008456e+03  1.83e-13 3.64e-12  5.88e-01     0s
   7   1.93829427e+02 -6.28640068e+02  1.32e-13 3.64e-12  2.22e-01     0s
   8   5.86927347e+01 -7.64218503e+01  1.21e-13 3.64e-12  3.65e-02     0s
   9   4.01852557e+01 -1.44829008e+01  1.28e-13 3.64e-12  1.48e-02     0s
  10   3.10235169e+01  1.35599913e+01  1.87e-13 7.28e-12  4.71e-03     0s
  11   2.65130062e+01  1.84580548e+01  3.76e-13 3.64e-12  2.17e-03     0s
  12   2.38858959e+01  2.03615380e+01  1.73e-12 3.64e-12  9.52e-04     0s
  13   2.32234150e+01  2.17629135e+01  6.49e-13 1.82e-12  3.94e-04     0s
  14   2.29216106e+01  2.21362921e+01  7.24e-12 3.64e-12  2.12e-04     0s
  15   2.26296624e+01  2.21930925e+01  2.63e-11 3.64e-12  1.18e-04     0s
  16   2.25796566e+01  2.22748492e+01  2.55e-11 3.64e-12  8.23e-05     0s
  17   2.24789584e+01  2.23253671e+01  2.24e-11 3.64e-12  4.15e-05     0s
  18   2.24016003e+01  2.23475452e+01  2.57e-11 1.82e-12  1.46e-05     0s
  19   2.23921499e+01  2.23804400e+01  1.64e-11 3.64e-12  3.16e-06     0s
  20   2.23894333e+01  2.23872522e+01  4.00e-12 3.64e-12  5.89e-07     0s
  21   2.23889829e+01  2.23880610e+01  1.13e-12 7.28e-12  2.49e-07     0s
  22   2.23887091e+01  2.23885845e+01  7.51e-12 3.64e-12  3.36e-08     0s
  23   2.23886514e+01  2.23886410e+01  9.33e-12 3.64e-12  2.82e-09     0s
  24   2.23886439e+01  2.23886438e+01  4.93e-11 3.64e-12  4.31e-11     0s
  25   2.23886439e+01  2.23886439e+01  1.71e-11 3.64e-12  2.84e-12     0s

Barrier solved model in 25 iterations and 0.27 seconds (0.07 work units)
Optimal objective 2.23886439e+01


Root relaxation: objective 2.238864e+01, 156 iterations, 0.23 seconds (0.04 work units)

    Nodes    |    Current Node    |     Objective Bounds      |     Work
 Expl Unexpl |  Obj  Depth IntInf | Incumbent    BestBd   Gap | It/Node Time

     0     0   22.38864    0   10   64.65398   22.38864  65.4%     -    0s
H    0     0                      56.2306328   22.98161  59.1%     -    0s
     0     0   22.98161    0    6   56.23063   22.98161  59.1%     -    0s
H    0     0                      54.2917989   23.01965  57.6%     -    0s
     0     0   23.01965    0   10   54.29180   23.01965  57.6%     -    0s
H    0     0                      48.7116491   23.01965  52.7%     -    0s
     0     0   23.67127    0   10   48.71165   23.67127  51.4%     -    0s
     0     0   23.67127    0    9   48.71165   23.67127  51.4%     -    0s
     0     0   24.96522    0    7   48.71165   24.96522  48.7%     -    0s
     0     0   24.99206    0    6   48.71165   24.99206  48.7%     -    0s
H    0     0                      48.5428730   24.99206  48.5%     -    0s
H    0     0                      46.8915751   24.99206  46.7%     -    0s
     0     0   24.99206    0    7   46.89158   24.99206  46.7%     -    0s
     0     0   25.45577    0    8   46.89158   25.45577  45.7%     -    0s
     0     0   25.78970    0    8   46.89158   25.78970  45.0%     -    0s
H    0     0                      39.7501409   25.78970  35.1%     -    0s
     0     2   25.78970    0    8   39.75014   25.78970  35.1%     -    0s
H  104   104                      39.7127208   26.22754  34.0%  50.8    1s

Cutting planes:
  Gomory: 4
  Implied bound: 2
  MIR: 48
  Relax-and-lift: 12

Explored 1960 nodes (57675 simplex iterations) in 2.76 seconds (2.56 work units)
Thread count was 36 (of 36 available processors)

Solution count 8: 39.7127 39.7501 46.8916 ... 64.654

Optimal solution found (tolerance 1.00e-02)
Best objective 3.971272077987e+01, best bound 3.971272077987e+01, gap 0.0000%

Gurobi 9.5.0 (linux64) logging started Fri Dec  8 20:31:33 2023

Set parameter LogFile to value "/lustre1/scratch/348/vsc34888/JointResearch/05.Models/06.Benchmarking/G.Representative_days_based_on_Line_Benefit_NN_OC_fy_2/RTS24_mod1_ByStages_nc10/openStarNet_RTS24_mod1_ByStages_nc10.log"
Set parameter Method to value 2
Set parameter MIPFocus to value 1
Set parameter Presolve to value 2
Set parameter RINS to value 100
Set parameter MIPGap to value 0.01
Set parameter Threads to value 36
Set parameter TimeLimit to value 259200
Set parameter IterationLimit to value 760000000
No parameters matching 'relax_integrality' found
Gurobi Optimizer version 9.5.0 build v9.5.0rc5 (linux64)
Thread count: 36 physical cores, 36 logical processors, using up to 36 threads
Optimize a model with 3908 rows, 2637 columns and 9704 nonzeros
Model fingerprint: 0x75a0f8ef
Coefficient statistics:
  Matrix range     [1e-02, 3e+03]
  Objective range  [1e+00, 1e+00]
  Bounds range     [2e-04, 2e+00]
  RHS range        [2e-04, 2e+01]
Presolve removed 3283 rows and 1523 columns
Presolve time: 0.00s
Presolved: 625 rows, 1133 columns, 2733 nonzeros

Ordering time: 0.00s

Barrier statistics:
 AA' NZ     : 1.567e+03
 Factor NZ  : 5.704e+03 (roughly 1 MB of memory)
 Factor Ops : 7.210e+04 (less than 1 second per iteration)
 Threads    : 1

                  Objective                Residual
Iter       Primal          Dual         Primal    Dual     Compl     Time
   0   2.91662860e+06 -1.53394544e+07  1.28e+01 4.86e+03  1.07e+05     0s
   1   1.78234358e+05 -1.17500754e+07  7.90e-01 5.09e-11  1.11e+04     0s
   2   5.56305201e+04 -3.75677430e+06  2.36e-01 6.99e-11  2.70e+03     0s
   3   2.29980992e+04 -1.14959245e+06  2.53e-02 3.34e-11  6.29e+02     0s
   4   1.32671152e+04 -2.03062393e+05  9.09e-04 2.18e-11  1.09e+02     0s
   5   3.73592320e+03 -3.24195811e+04  2.50e-07 1.46e-11  1.81e+01     0s
   6   7.34259916e+02 -3.08540784e+03  1.70e-08 7.28e-12  1.92e+00     0s
   7   2.88856380e+02 -6.76053358e+02  1.09e-10 1.46e-11  4.84e-01     0s
   8   1.09973800e+02 -5.00505116e+01  9.24e-12 1.46e-11  8.03e-02     0s
   9   5.03508435e+01  7.43539160e+00  1.85e-12 1.46e-11  2.15e-02     0s
  10   4.20630329e+01  3.23340161e+01  8.42e-13 2.91e-11  4.88e-03     0s
  11   4.03881047e+01  3.76636947e+01  1.02e-12 2.91e-11  1.37e-03     0s
  12   3.99309617e+01  3.92774766e+01  1.53e-12 1.46e-11  3.28e-04     0s
  13   3.97191732e+01  3.96960223e+01  5.75e-12 7.28e-12  1.16e-05     0s
  14   3.97128091e+01  3.97125465e+01  5.31e-12 7.28e-12  1.32e-07     0s
  15   3.97127209e+01  3.97127206e+01  2.38e-12 1.46e-11  1.38e-10     0s
  16   3.97127208e+01  3.97127208e+01  3.45e-12 1.46e-11  1.43e-16     0s

Barrier solved model in 16 iterations and 0.01 seconds (0.01 work units)
Optimal objective 3.97127208e+01

Crossover log...

     146 DPushes remaining with DInf 0.0000000e+00                 0s

      32 PPushes remaining with PInf 0.0000000e+00                 0s
       0 PPushes remaining with PInf 0.0000000e+00                 0s

  Push phase complete: Pinf 0.0000000e+00, Dinf 2.8367100e-13      0s

Iteration    Objective       Primal Inf.    Dual Inf.      Time
      35    3.9712721e+01   0.000000e+00   0.000000e+00      0s

Use crossover to convert LP symmetric solution to basic solution...
Crossover log...

      31 PPushes remaining with PInf 0.0000000e+00                 0s
       0 PPushes remaining with PInf 0.0000000e+00                 0s

  Push phase complete: Pinf 0.0000000e+00, Dinf 4.4935374e-13      0s

Iteration    Objective       Primal Inf.    Dual Inf.      Time
      69    3.9712721e+01   0.000000e+00   0.000000e+00      0s

Solved in 69 iterations and 0.02 seconds (0.01 work units)
Optimal objective  3.971272078e+01

Gurobi 9.5.0 (linux64) logging started Sat Dec  9 17:34:28 2023

Set parameter LogFile to value "/lustre1/scratch/348/vsc34888/JointResearch/05.Models/06.Benchmarking/G.Representative_days_based_on_Line_Benefit_NN_OC_fy_2/RTS24_mod1_ByStages_nc10/openStarNet_RTS24_mod1_ByStages_nc10.log"
Set parameter Method to value 2
Set parameter MIPFocus to value 1
Set parameter Presolve to value 2
Set parameter RINS to value 100
Set parameter MIPGap to value 0.01
Set parameter Threads to value 36
Set parameter TimeLimit to value 259200
Set parameter IterationLimit to value 760000000
Gurobi Optimizer version 9.5.0 build v9.5.0rc5 (linux64)
Thread count: 36 physical cores, 36 logical processors, using up to 36 threads
Optimize a model with 3908 rows, 2661 columns and 10655 nonzeros
Model fingerprint: 0x08cdde6a
Variable types: 2640 continuous, 21 integer (21 binary)
Coefficient statistics:
  Matrix range     [1e-02, 2e+03]
  Objective range  [1e+00, 1e+00]
  Bounds range     [9e-05, 2e+00]
  RHS range        [9e-05, 2e+00]
Presolve removed 2328 rows and 1341 columns
Presolve time: 0.02s
Presolved: 1580 rows, 1320 columns, 5705 nonzeros
Variable types: 1299 continuous, 21 integer (21 binary)
Found heuristic solution: objective 84.4168774
Root relaxation presolve removed 5 rows and 5 columns
Root relaxation presolved: 1575 rows, 1315 columns, 5695 nonzeros

Root barrier log...

Ordering time: 0.02s

Barrier statistics:
 AA' NZ     : 2.814e+04
 Factor NZ  : 1.414e+05 (roughly 2 MB of memory)
 Factor Ops : 1.944e+07 (less than 1 second per iteration)
 Threads    : 36

                  Objective                Residual
Iter       Primal          Dual         Primal    Dual     Compl     Time
   0   8.30899639e+05 -3.47882164e+07  6.94e+00 1.15e+03  3.20e+04     0s
   1   1.15098264e+05 -1.08353023e+07  9.67e-01 2.20e-11  4.88e+03     0s
   2   2.05055270e+04 -7.44261653e+06  1.57e-01 1.04e-10  2.26e+03     0s
   3   5.74734959e+03 -4.42335878e+05  1.60e-03 5.28e-11  1.21e+02     0s
   4   3.41404851e+03 -2.66803035e+04  1.27e-13 7.28e-12  8.11e+00     0s
   5   6.97426505e+02 -3.43730626e+03  1.23e-13 1.09e-11  1.11e+00     0s
   6   2.98867635e+02 -9.22431003e+02  4.71e-14 3.64e-12  3.29e-01     0s
   7   1.63233832e+02 -2.31574107e+02  5.15e-14 3.64e-12  1.06e-01     0s
   8   9.25027175e+01 -8.11622102e+00  1.45e-13 3.64e-12  2.71e-02     0s
   9   7.56690002e+01  2.41482427e+01  1.39e-13 3.64e-12  1.39e-02     0s
  10   6.58016234e+01  4.83694954e+01  1.70e-13 1.82e-12  4.70e-03     0s
  11   6.38362001e+01  5.27686546e+01  1.21e-13 3.64e-12  2.98e-03     0s
  12   5.95942589e+01  5.50761111e+01  8.77e-13 3.64e-12  1.22e-03     0s
  13   5.88447719e+01  5.79798322e+01  6.83e-13 3.64e-12  2.33e-04     0s
  14   5.83406037e+01  5.81671768e+01  5.38e-12 1.82e-12  4.67e-05     0s
  15   5.82601620e+01  5.81992785e+01  6.47e-12 1.82e-12  1.64e-05     0s
  16   5.82331795e+01  5.82141950e+01  4.39e-12 1.82e-12  5.12e-06     0s
  17   5.82230913e+01  5.82183024e+01  7.78e-12 1.82e-12  1.29e-06     0s
  18   5.82207303e+01  5.82194577e+01  3.85e-12 7.28e-12  3.43e-07     0s
  19   5.82202703e+01  5.82198455e+01  3.46e-12 1.82e-12  1.14e-07     0s
  20   5.82201185e+01  5.82200808e+01  3.55e-12 1.82e-12  1.02e-08     0s
  21   5.82200889e+01  5.82200886e+01  4.75e-12 3.64e-12  8.19e-11     0s

Barrier solved model in 21 iterations and 0.27 seconds (0.06 work units)
Optimal objective 5.82200889e+01


Root relaxation: objective 5.822009e+01, 187 iterations, 0.22 seconds (0.04 work units)

    Nodes    |    Current Node    |     Objective Bounds      |     Work
 Expl Unexpl |  Obj  Depth IntInf | Incumbent    BestBd   Gap | It/Node Time

     0     0   58.22009    0   12   84.41688   58.22009  31.0%     -    0s
H    0     0                      77.2803357   58.65689  24.1%     -    0s
     0     0   58.65689    0   10   77.28034   58.65689  24.1%     -    0s
H    0     0                      73.1393583   58.66143  19.8%     -    0s
     0     0   58.66143    0   10   73.13936   58.66143  19.8%     -    0s
     0     0   59.18019    0   13   73.13936   59.18019  19.1%     -    0s
H    0     0                      72.9381093   59.18019  18.9%     -    0s
     0     0   59.18054    0   12   72.93811   59.18054  18.9%     -    0s
H    0     0                      72.2841772   59.18054  18.1%     -    0s
     0     0   60.36209    0    7   72.28418   60.36209  16.5%     -    0s
H    0     0                      70.7690934   60.97146  13.8%     -    0s
     0     0   60.99431    0   10   70.76909   60.99431  13.8%     -    0s
     0     0   61.20442    0   11   70.76909   61.20442  13.5%     -    0s
     0     0   61.49615    0   11   70.76909   61.49615  13.1%     -    0s
     0     0   61.63726    0   11   70.76909   61.63726  12.9%     -    0s
     0     0   62.24315    0   11   70.76909   62.24315  12.0%     -    0s
H    0     0                      69.1802889   62.24315  10.0%     -    1s
     0     2   62.24315    0   11   69.18029   62.24315  10.0%     -    1s

Cutting planes:
  Gomory: 2
  Implied bound: 19
  MIR: 50
  Relax-and-lift: 6

Explored 807 nodes (25515 simplex iterations) in 2.75 seconds (2.14 work units)
Thread count was 36 (of 36 available processors)

Solution count 7: 69.1803 70.7691 72.2842 ... 84.4169

Optimal solution found (tolerance 1.00e-02)
Best objective 6.918028892130e+01, best bound 6.863627030483e+01, gap 0.7864%

Gurobi 9.5.0 (linux64) logging started Sat Dec  9 17:34:31 2023

Set parameter LogFile to value "/lustre1/scratch/348/vsc34888/JointResearch/05.Models/06.Benchmarking/G.Representative_days_based_on_Line_Benefit_NN_OC_fy_2/RTS24_mod1_ByStages_nc10/openStarNet_RTS24_mod1_ByStages_nc10.log"
Set parameter Method to value 2
Set parameter MIPFocus to value 1
Set parameter Presolve to value 2
Set parameter RINS to value 100
Set parameter MIPGap to value 0.01
Set parameter Threads to value 36
Set parameter TimeLimit to value 259200
Set parameter IterationLimit to value 760000000
No parameters matching 'relax_integrality' found
Gurobi Optimizer version 9.5.0 build v9.5.0rc5 (linux64)
Thread count: 36 physical cores, 36 logical processors, using up to 36 threads
Optimize a model with 3908 rows, 2640 columns and 9710 nonzeros
Model fingerprint: 0xa312d4e1
Coefficient statistics:
  Matrix range     [1e-02, 2e+03]
  Objective range  [1e+00, 1e+00]
  Bounds range     [9e-05, 2e+00]
  RHS range        [9e-05, 1e+01]
Presolve removed 3279 rows and 1511 columns
Presolve time: 0.00s
Presolved: 629 rows, 1151 columns, 2708 nonzeros

Ordering time: 0.00s

Barrier statistics:
 AA' NZ     : 1.431e+03
 Factor NZ  : 5.416e+03 (roughly 1 MB of memory)
 Factor Ops : 6.945e+04 (less than 1 second per iteration)
 Threads    : 1

                  Objective                Residual
Iter       Primal          Dual         Primal    Dual     Compl     Time
   0   8.37277921e+05 -5.54337034e+07  4.00e+00 4.60e+03  1.47e+05     0s
   1   7.60476677e+04 -2.90850313e+07  2.92e-01 2.10e-10  2.09e+04     0s
   2   4.08307428e+04 -5.23666138e+06  1.00e-01 1.79e-10  3.40e+03     0s
   3   2.33093915e+04 -7.39724504e+05  1.26e-03 9.46e-11  3.92e+02     0s
   4   1.47407526e+04 -2.88257706e+04  3.08e-13 2.84e-10  2.22e+01     0s
   5   2.35379620e+03 -4.65297274e+03  8.57e-14 4.20e-11  3.57e+00     0s
   6   3.89791444e+02 -8.23624665e+02  5.48e-14 1.02e-11  6.18e-01     0s
   7   1.96984051e+02 -1.22034951e+02  3.70e-14 5.82e-11  1.63e-01     0s
   8   9.87942693e+01  3.06435258e+01  7.77e-15 7.28e-12  3.47e-02     0s
   9   7.71189910e+01  5.81252367e+01  3.51e-14 2.91e-11  9.68e-03     0s
  10   7.05836234e+01  6.66782334e+01  7.87e-14 7.28e-12  1.99e-03     0s
  11   6.95990843e+01  6.83626923e+01  2.56e-14 5.82e-11  6.30e-04     0s
  12   6.92491482e+01  6.90849074e+01  1.02e-13 5.82e-11  8.37e-05     0s
  13   6.91846492e+01  6.91747209e+01  1.03e-12 2.91e-11  5.06e-06     0s
  14   6.91803223e+01  6.91802372e+01  1.22e-13 5.82e-11  4.34e-08     0s
  15   6.91802890e+01  6.91802889e+01  1.21e-12 7.28e-12  4.34e-11     0s
  16   6.91802889e+01  6.91802889e+01  3.57e-13 3.64e-12  1.53e-16     0s

Barrier solved model in 16 iterations and 0.01 seconds (0.01 work units)
Optimal objective 6.91802889e+01

Crossover log...

     140 DPushes remaining with DInf 0.0000000e+00                 0s
       0 DPushes remaining with DInf 0.0000000e+00                 0s

      36 PPushes remaining with PInf 0.0000000e+00                 0s
       0 PPushes remaining with PInf 0.0000000e+00                 0s

  Push phase complete: Pinf 0.0000000e+00, Dinf 5.0992287e-13      0s

Iteration    Objective       Primal Inf.    Dual Inf.      Time
      40    6.9180289e+01   0.000000e+00   0.000000e+00      0s

Use crossover to convert LP symmetric solution to basic solution...
Crossover log...

       0 DPushes remaining with DInf 0.0000000e+00                 0s

      27 PPushes remaining with PInf 0.0000000e+00                 0s
       0 PPushes remaining with PInf 0.0000000e+00                 0s

  Push phase complete: Pinf 0.0000000e+00, Dinf 7.9192100e-13      0s

Iteration    Objective       Primal Inf.    Dual Inf.      Time
      72    6.9180289e+01   0.000000e+00   0.000000e+00      0s

Solved in 72 iterations and 0.02 seconds (0.01 work units)
Optimal objective  6.918028892e+01

Gurobi 9.5.0 (linux64) logging started Sat Dec 16 21:10:56 2023

Set parameter LogFile to value "/lustre1/scratch/348/vsc34888/JointResearch/05.Models/06.Benchmarking/G.Representative_days_based_on_Line_Benefit_NN_OC_fy_2/RTS24_mod1_ByStages_nc10/openStarNet_RTS24_mod1_ByStages_nc10.log"
Set parameter Method to value 2
Set parameter MIPFocus to value 1
Set parameter Presolve to value 2
Set parameter RINS to value 100
Set parameter MIPGap to value 0.01
Set parameter Threads to value 36
Set parameter TimeLimit to value 259200
Set parameter IterationLimit to value 760000000
Gurobi Optimizer version 9.5.0 build v9.5.0rc5 (linux64)
Thread count: 36 physical cores, 36 logical processors, using up to 36 threads
Optimize a model with 3553 rows, 2408 columns and 9642 nonzeros
Model fingerprint: 0x55730ae7
Variable types: 2387 continuous, 21 integer (21 binary)
Coefficient statistics:
  Matrix range     [7e-03, 8e+03]
  Objective range  [1e+00, 1e+00]
  Bounds range     [4e-05, 2e+00]
  RHS range        [4e-05, 2e+00]
Presolve removed 2116 rows and 1204 columns
Presolve time: 0.02s
Presolved: 1437 rows, 1204 columns, 5189 nonzeros
Variable types: 1183 continuous, 21 integer (21 binary)
Found heuristic solution: objective 116.2510917
Root relaxation presolved: 1437 rows, 1204 columns, 5189 nonzeros

Root barrier log...

Ordering time: 0.02s

Barrier statistics:
 AA' NZ     : 2.391e+04
 Factor NZ  : 1.168e+05 (roughly 2 MB of memory)
 Factor Ops : 1.577e+07 (less than 1 second per iteration)
 Threads    : 36

                  Objective                Residual
Iter       Primal          Dual         Primal    Dual     Compl     Time
   0   5.96535902e+05 -1.19410167e+08  4.80e+00 1.64e+03  9.37e+04     0s
   1   4.13592970e+04 -2.91732291e+07  3.70e-01 1.74e-10  1.10e+04     0s
   2   7.25932651e+03 -1.96328946e+07  4.49e-02 2.51e-10  6.01e+03     0s
   3   3.04665472e+03 -2.92127749e+05  1.10e-13 1.19e-10  8.71e+01     0s
   4   2.13173920e+03 -2.29661625e+04  1.19e-13 2.13e-11  7.40e+00     0s
   5   9.32780178e+02 -6.53811174e+03  1.21e-13 1.09e-11  2.20e+00     0s
   6   5.88698000e+02 -2.19034874e+03  7.37e-14 1.46e-11  8.20e-01     0s
   7   4.08006411e+02 -1.13739643e+03  9.75e-14 1.46e-11  4.56e-01     0s
   8   2.08713428e+02 -2.26596775e+02  7.12e-13 3.64e-12  1.28e-01     0s
   9   9.36713041e+01 -4.33275018e+01  1.85e-13 3.64e-12  4.04e-02     0s
  10   7.18432255e+01  4.16195496e+01  8.75e-14 7.28e-12  8.92e-03     0s
  11   6.61710609e+01  5.51352309e+01  1.16e-13 1.46e-11  3.26e-03     0s
  12   6.34988864e+01  5.97691596e+01  5.76e-13 3.64e-12  1.10e-03     0s
  13   6.25913722e+01  6.19600559e+01  9.69e-13 3.64e-12  1.86e-04     0s
  14   6.23714364e+01  6.21941909e+01  2.56e-12 7.28e-12  5.23e-05     0s
  15   6.23303862e+01  6.22668417e+01  4.77e-12 1.46e-11  1.87e-05     0s
  16   6.23054413e+01  6.22885449e+01  1.91e-11 7.28e-12  4.98e-06     0s
  17   6.22991231e+01  6.22962152e+01  1.02e-10 3.64e-12  8.58e-07     0s
  18   6.22981129e+01  6.22976017e+01  6.76e-11 1.46e-11  1.51e-07     0s
  19   6.22980476e+01  6.22977658e+01  3.14e-11 1.46e-11  8.31e-08     0s
  20   6.22980101e+01  6.22979160e+01  1.49e-10 1.46e-11  2.77e-08     0s
  21   6.22979926e+01  6.22979800e+01  2.48e-10 3.64e-12  3.71e-09     0s
  22   6.22979913e+01  6.22979913e+01  9.39e-10 7.28e-12  1.22e-11     0s

Barrier solved model in 22 iterations and 0.25 seconds (0.05 work units)
Optimal objective 6.22979913e+01


Root relaxation: objective 6.229799e+01, 149 iterations, 0.21 seconds (0.03 work units)

    Nodes    |    Current Node    |     Objective Bounds      |     Work
 Expl Unexpl |  Obj  Depth IntInf | Incumbent    BestBd   Gap | It/Node Time

     0     0   62.29799    0   13  116.25109   62.29799  46.4%     -    0s
H    0     0                      98.9173906   62.71796  36.6%     -    0s
     0     0   62.71796    0   10   98.91739   62.71796  36.6%     -    0s
     0     0   62.71992    0    9   98.91739   62.71992  36.6%     -    0s
     0     0   62.76229    0    9   98.91739   62.76229  36.6%     -    0s
     0     0   62.76785    0    9   98.91739   62.76785  36.5%     -    0s
     0     0   62.77653    0    9   98.91739   62.77653  36.5%     -    0s
     0     0   62.77835    0    9   98.91739   62.77835  36.5%     -    0s
     0     0   62.77877    0    9   98.91739   62.77877  36.5%     -    0s
H    0     0                      92.6006757   62.77877  32.2%     -    0s
     0     0   63.66222    0    9   92.60068   63.66222  31.3%     -    0s
H    0     0                      76.3002541   63.66222  16.6%     -    0s
     0     2   63.66222    0    9   76.30025   63.66222  16.6%     -    0s
H  110   110                      75.3695117   64.08552  15.0%  56.1    1s
H  139   127                      75.3425234   64.08552  14.9%  54.7    1s

Cutting planes:
  Gomory: 4
  MIR: 63

Explored 1406 nodes (45247 simplex iterations) in 2.42 seconds (1.95 work units)
Thread count was 36 (of 36 available processors)

Solution count 6: 75.3425 75.3695 76.3003 ... 116.251

Optimal solution found (tolerance 1.00e-02)
Best objective 7.534252337903e+01, best bound 7.534252337903e+01, gap 0.0000%

Gurobi 9.5.0 (linux64) logging started Sat Dec 16 21:10:59 2023

Set parameter LogFile to value "/lustre1/scratch/348/vsc34888/JointResearch/05.Models/06.Benchmarking/G.Representative_days_based_on_Line_Benefit_NN_OC_fy_2/RTS24_mod1_ByStages_nc10/openStarNet_RTS24_mod1_ByStages_nc10.log"
Set parameter Method to value 2
Set parameter MIPFocus to value 1
Set parameter Presolve to value 2
Set parameter RINS to value 100
Set parameter MIPGap to value 0.01
Set parameter Threads to value 36
Set parameter TimeLimit to value 259200
Set parameter IterationLimit to value 760000000
No parameters matching 'relax_integrality' found
Gurobi Optimizer version 9.5.0 build v9.5.0rc5 (linux64)
Thread count: 36 physical cores, 36 logical processors, using up to 36 threads
Optimize a model with 3553 rows, 2387 columns and 8781 nonzeros
Model fingerprint: 0x692e0c32
Coefficient statistics:
  Matrix range     [7e-03, 8e+03]
  Objective range  [1e+00, 1e+00]
  Bounds range     [4e-05, 2e+00]
  RHS range        [4e-05, 2e+01]
Presolve removed 2989 rows and 1360 columns
Presolve time: 0.00s
Presolved: 564 rows, 1038 columns, 2469 nonzeros

Ordering time: 0.00s

Barrier statistics:
 AA' NZ     : 1.327e+03
 Factor NZ  : 4.478e+03 (roughly 1 MB of memory)
 Factor Ops : 5.270e+04 (less than 1 second per iteration)
 Threads    : 1

                  Objective                Residual
Iter       Primal          Dual         Primal    Dual     Compl     Time
   0   2.94920845e+06 -3.10825996e+07  1.46e+01 3.92e+03  2.98e+05     0s
   1   1.75173325e+05 -2.58759213e+07  8.63e-01 1.44e-10  2.93e+04     0s
   2   5.40510831e+04 -6.53841795e+06  2.46e-01 3.21e-10  5.59e+03     0s
   3   1.54360884e+04 -1.19299303e+06  6.07e-03 8.92e-11  6.99e+02     0s
   4   6.19697571e+03 -3.89783413e+04  2.39e-12 1.46e-10  2.56e+01     0s
   5   1.44008719e+03 -1.50125203e+04  3.34e-12 2.91e-11  9.31e+00     0s
   6   7.81553115e+02 -4.52369175e+03  8.48e-14 2.91e-11  3.00e+00     0s
   7   4.20866891e+02 -9.04670279e+02  2.17e-13 5.82e-11  7.50e-01     0s
   8   1.51853524e+02 -2.90644491e+02  5.42e-14 2.91e-11  2.50e-01     0s
   9   8.96123674e+01  2.12172685e+01  1.17e-13 2.91e-11  3.87e-02     0s
  10   7.97019608e+01  6.39824779e+01  8.08e-14 2.91e-11  8.89e-03     0s
  11   7.73881892e+01  7.07951726e+01  2.74e-13 3.64e-12  3.73e-03     0s
  12   7.62799004e+01  7.37035830e+01  6.04e-14 2.91e-11  1.46e-03     0s
  13   7.57542544e+01  7.48292973e+01  1.36e-12 2.91e-11  5.23e-04     0s
  14   7.55390910e+01  7.52415939e+01  6.59e-12 8.73e-11  1.68e-04     0s
  15   7.53843255e+01  7.53178676e+01  2.39e-12 2.91e-11  3.76e-05     0s
  16   7.53439079e+01  7.53413098e+01  9.69e-13 2.91e-11  1.47e-06     0s
  17   7.53425364e+01  7.53424807e+01  3.89e-12 3.64e-12  3.15e-08     0s
  18   7.53425236e+01  7.53425229e+01  4.21e-12 2.91e-11  4.10e-10     0s
  19   7.53425234e+01  7.53425234e+01  3.63e-12 1.46e-11  5.92e-16     0s

Barrier solved model in 19 iterations and 0.01 seconds (0.01 work units)
Optimal objective 7.53425234e+01

Crossover log...

     103 DPushes remaining with DInf 0.0000000e+00                 0s
       0 DPushes remaining with DInf 0.0000000e+00                 0s

      49 PPushes remaining with PInf 0.0000000e+00                 0s
       0 PPushes remaining with PInf 0.0000000e+00                 0s

  Push phase complete: Pinf 0.0000000e+00, Dinf 9.1082724e-13      0s

Iteration    Objective       Primal Inf.    Dual Inf.      Time
      53    7.5342523e+01   0.000000e+00   0.000000e+00      0s

Use crossover to convert LP symmetric solution to basic solution...
Crossover log...

       0 DPushes remaining with DInf 0.0000000e+00                 0s

      25 PPushes remaining with PInf 0.0000000e+00                 0s
       0 PPushes remaining with PInf 0.0000000e+00                 0s

  Push phase complete: Pinf 0.0000000e+00, Dinf 1.3259858e-12      0s

Iteration    Objective       Primal Inf.    Dual Inf.      Time
      83    7.5342523e+01   0.000000e+00   0.000000e+00      0s

Solved in 83 iterations and 0.02 seconds (0.01 work units)
Optimal objective  7.534252338e+01
